Minimize
  2 X_0,1,0,0 + 10000 BAUX_0,1,0,0 + 2 X_0,2,0,0 + 10000 BAUX_0,2,0,0
   + 3 X_0,3,0,0 + 10000 BAUX_0,3,0,0 + 3 X_0,4,0,0 + 10000 BAUX_0,4,0,0
   + 4 X_2,3,2,0 + 10000 BAUX_2,3,2,0 + 3 X_2,4,2,0 + 10000 BAUX_2,4,2,0
   + 2 X_2,0,2,0 + 10000 BAUX_2,0,2,0 + 4 X_2,3,3,0 + 10000 BAUX_2,3,3,0
   + 3 X_2,4,3,0 + 10000 BAUX_2,4,3,0 + 2 X_2,0,3,0 + 10000 BAUX_2,0,3,0
   + 4 X_2,3,4,0 + 10000 BAUX_2,3,4,0 + 3 X_2,4,4,0 + 10000 BAUX_2,4,4,0
   + 2 X_2,0,4,0 + 10000 BAUX_2,0,4,0 + 4 X_1,2,5,0 + 10000 BAUX_1,2,5,0
   + X_1,3,5,0 + 10000 BAUX_1,3,5,0 + 3 X_1,4,5,0 + 10000 BAUX_1,4,5,0
   + 2 X_1,0,5,0 + 10000 BAUX_1,0,5,0 + 4 X_2,3,5,0 + 10000 BAUX_2,3,5,0
   + 3 X_2,4,5,0 + 10000 BAUX_2,4,5,0 + 2 X_2,0,5,0 + 10000 BAUX_2,0,5,0
   + 4 X_2,3,11,0 + 10000 BAUX_2,3,11,0 + 3 X_2,4,11,0
   + 10000 BAUX_2,4,11,0 + 2 X_2,0,11,0 + 10000 BAUX_2,0,11,0 + 4 X_1,2,6,0
   + 10000 BAUX_1,2,6,0 + X_1,3,6,0 + 10000 BAUX_1,3,6,0 + 3 X_1,4,6,0
   + 10000 BAUX_1,4,6,0 + 2 X_1,0,6,0 + 10000 BAUX_1,0,6,0 + 4 X_2,3,6,0
   + 10000 BAUX_2,3,6,0 + 3 X_2,4,6,0 + 10000 BAUX_2,4,6,0 + 2 X_2,0,6,0
   + 10000 BAUX_2,0,6,0 + 4 X_2,3,12,0 + 10000 BAUX_2,3,12,0 + 3 X_2,4,12,0
   + 10000 BAUX_2,4,12,0 + 2 X_2,0,12,0 + 10000 BAUX_2,0,12,0 + 4 X_2,3,7,0
   + 10000 BAUX_2,3,7,0 + 3 X_2,4,7,0 + 10000 BAUX_2,4,7,0 + 2 X_2,0,7,0
   + 10000 BAUX_2,0,7,0 + 4 X_2,3,8,0 + 10000 BAUX_2,3,8,0 + 3 X_2,4,8,0
   + 10000 BAUX_2,4,8,0 + 2 X_2,0,8,0 + 10000 BAUX_2,0,8,0 + 4 X_2,3,9,0
   + 10000 BAUX_2,3,9,0 + 3 X_2,4,9,0 + 10000 BAUX_2,4,9,0 + 2 X_2,0,9,0
   + 10000 BAUX_2,0,9,0 + 2 X_3,4,20,0 + 10000 BAUX_3,4,20,0 + 3 X_3,0,20,0
   + 10000 BAUX_3,0,20,0 + 4 X_2,3,10,0 + 10000 BAUX_2,3,10,0
   + 3 X_2,4,10,0 + 10000 BAUX_2,4,10,0 + 2 X_2,0,10,0
   + 10000 BAUX_2,0,10,0 + 2 X_3,4,21,0 + 10000 BAUX_3,4,21,0
   + 3 X_3,0,21,0 + 10000 BAUX_3,0,21,0 + 3 X_4,0,25,0
   + 10000 BAUX_4,0,25,0 + 3 X_4,0,26,0 + 10000 BAUX_4,0,26,0
   + 10000 FAUX_0
Subject To
 COVER_1: Y_1,5 + Y_1,6 = 1
 COVER_2: Y_2,2 + Y_2,3 + Y_2,4 + Y_2,5 + Y_2,6 + Y_2,7 + Y_2,8 + Y_2,9
   + Y_2,10 + Y_2,11 + Y_2,12 = 1
 COVER_3: Y_3,20 + Y_3,21 = 1
 COVER_4: Y_4,25 + Y_4,26 = 1
 SYNCH_1,5,0: - Y_1,5 + X_1,2,5,0 + X_1,3,5,0 + X_1,4,5,0 + X_1,0,5,0 = 0
 SYNCH_1,6,0: - Y_1,6 + X_1,2,6,0 + X_1,3,6,0 + X_1,4,6,0 + X_1,0,6,0 = 0
 SYNCH_2,2,0: - Y_2,2 + X_2,3,2,0 + X_2,4,2,0 + X_2,0,2,0 = 0
 SYNCH_2,3,0: - Y_2,3 + X_2,3,3,0 + X_2,4,3,0 + X_2,0,3,0 = 0
 SYNCH_2,4,0: - Y_2,4 + X_2,3,4,0 + X_2,4,4,0 + X_2,0,4,0 = 0
 SYNCH_2,5,0: - Y_2,5 + X_2,3,5,0 + X_2,4,5,0 + X_2,0,5,0 = 0
 SYNCH_2,6,0: - Y_2,6 + X_2,3,6,0 + X_2,4,6,0 + X_2,0,6,0 = 0
 SYNCH_2,7,0: - Y_2,7 + X_2,3,7,0 + X_2,4,7,0 + X_2,0,7,0 = 0
 SYNCH_2,8,0: - Y_2,8 + X_2,3,8,0 + X_2,4,8,0 + X_2,0,8,0 = 0
 SYNCH_2,9,0: - Y_2,9 + X_2,3,9,0 + X_2,4,9,0 + X_2,0,9,0 = 0
 SYNCH_2,10,0: - Y_2,10 + X_2,3,10,0 + X_2,4,10,0 + X_2,0,10,0 = 0
 SYNCH_2,11,0: - Y_2,11 + X_2,3,11,0 + X_2,4,11,0 + X_2,0,11,0 = 0
 SYNCH_2,12,0: - Y_2,12 + X_2,3,12,0 + X_2,4,12,0 + X_2,0,12,0 = 0
 SYNCH_3,20,0: - Y_3,20 + X_3,4,20,0 + X_3,0,20,0 = 0
 SYNCH_3,21,0: - Y_3,21 + X_3,4,21,0 + X_3,0,21,0 = 0
 SYNCH_4,25,0: - Y_4,25 + X_4,0,25,0 = 0
 SYNCH_4,26,0: - Y_4,26 + X_4,0,26,0 = 0
 CARD_0: FAUX_0 = 2
 EXPLICIT_0,1,0,0: X_0,1,0,0 - BAUX_0,1,0,0 = 0
 EXPLICIT_0,2,0,0: X_0,2,0,0 - BAUX_0,2,0,0 = 0
 EXPLICIT_0,3,0,0: X_0,3,0,0 - BAUX_0,3,0,0 = 0
 EXPLICIT_0,4,0,0: X_0,4,0,0 - BAUX_0,4,0,0 = 0
 EXPLICIT_1,0,5,0: X_1,0,5,0 - BAUX_1,0,5,0 = 0
 EXPLICIT_1,0,6,0: X_1,0,6,0 - BAUX_1,0,6,0 = 0
 EXPLICIT_1,2,5,0: X_1,2,5,0 - BAUX_1,2,5,0 = 0
 EXPLICIT_1,2,6,0: X_1,2,6,0 - BAUX_1,2,6,0 = 0
 EXPLICIT_1,3,5,0: X_1,3,5,0 - BAUX_1,3,5,0 = 0
 EXPLICIT_1,3,6,0: X_1,3,6,0 - BAUX_1,3,6,0 = 0
 EXPLICIT_1,4,5,0: X_1,4,5,0 - BAUX_1,4,5,0 = 0
 EXPLICIT_1,4,6,0: X_1,4,6,0 - BAUX_1,4,6,0 = 0
 EXPLICIT_2,0,2,0: X_2,0,2,0 - BAUX_2,0,2,0 = 0
 EXPLICIT_2,0,3,0: X_2,0,3,0 - BAUX_2,0,3,0 = 0
 EXPLICIT_2,0,4,0: X_2,0,4,0 - BAUX_2,0,4,0 = 0
 EXPLICIT_2,0,5,0: X_2,0,5,0 - BAUX_2,0,5,0 = 0
 EXPLICIT_2,0,6,0: X_2,0,6,0 - BAUX_2,0,6,0 = 0
 EXPLICIT_2,0,7,0: X_2,0,7,0 - BAUX_2,0,7,0 = 0
 EXPLICIT_2,0,8,0: X_2,0,8,0 - BAUX_2,0,8,0 = 0
 EXPLICIT_2,0,9,0: X_2,0,9,0 - BAUX_2,0,9,0 = 0
 EXPLICIT_2,0,10,0: X_2,0,10,0 - BAUX_2,0,10,0 = 0
 EXPLICIT_2,0,11,0: X_2,0,11,0 - BAUX_2,0,11,0 = 0
 EXPLICIT_2,0,12,0: X_2,0,12,0 - BAUX_2,0,12,0 = 0
 EXPLICIT_2,3,2,0: X_2,3,2,0 - BAUX_2,3,2,0 = 0
 EXPLICIT_2,3,3,0: X_2,3,3,0 - BAUX_2,3,3,0 = 0
 EXPLICIT_2,3,4,0: X_2,3,4,0 - BAUX_2,3,4,0 = 0
 EXPLICIT_2,3,5,0: X_2,3,5,0 - BAUX_2,3,5,0 = 0
 EXPLICIT_2,3,6,0: X_2,3,6,0 - BAUX_2,3,6,0 = 0
 EXPLICIT_2,3,7,0: X_2,3,7,0 - BAUX_2,3,7,0 = 0
 EXPLICIT_2,3,8,0: X_2,3,8,0 - BAUX_2,3,8,0 = 0
 EXPLICIT_2,3,9,0: X_2,3,9,0 - BAUX_2,3,9,0 = 0
 EXPLICIT_2,3,10,0: X_2,3,10,0 - BAUX_2,3,10,0 = 0
 EXPLICIT_2,3,11,0: X_2,3,11,0 - BAUX_2,3,11,0 = 0
 EXPLICIT_2,3,12,0: X_2,3,12,0 - BAUX_2,3,12,0 = 0
 EXPLICIT_2,4,2,0: X_2,4,2,0 - BAUX_2,4,2,0 = 0
 EXPLICIT_2,4,3,0: X_2,4,3,0 - BAUX_2,4,3,0 = 0
 EXPLICIT_2,4,4,0: X_2,4,4,0 - BAUX_2,4,4,0 = 0
 EXPLICIT_2,4,5,0: X_2,4,5,0 - BAUX_2,4,5,0 = 0
 EXPLICIT_2,4,6,0: X_2,4,6,0 - BAUX_2,4,6,0 = 0
 EXPLICIT_2,4,7,0: X_2,4,7,0 - BAUX_2,4,7,0 = 0
 EXPLICIT_2,4,8,0: X_2,4,8,0 - BAUX_2,4,8,0 = 0
 EXPLICIT_2,4,9,0: X_2,4,9,0 - BAUX_2,4,9,0 = 0
 EXPLICIT_2,4,10,0: X_2,4,10,0 - BAUX_2,4,10,0 = 0
 EXPLICIT_2,4,11,0: X_2,4,11,0 - BAUX_2,4,11,0 = 0
 EXPLICIT_2,4,12,0: X_2,4,12,0 - BAUX_2,4,12,0 = 0
 EXPLICIT_3,0,20,0: X_3,0,20,0 - BAUX_3,0,20,0 = 0
 EXPLICIT_3,0,21,0: X_3,0,21,0 - BAUX_3,0,21,0 = 0
 EXPLICIT_3,4,20,0: X_3,4,20,0 - BAUX_3,4,20,0 = 0
 EXPLICIT_3,4,21,0: X_3,4,21,0 - BAUX_3,4,21,0 = 0
 EXPLICIT_4,0,25,0: X_4,0,25,0 - BAUX_4,0,25,0 = 0
 EXPLICIT_4,0,26,0: X_4,0,26,0 - BAUX_4,0,26,0 = 0
Bounds
 Y_1,5 <= 1
 Y_1,6 <= 1
 Y_2,2 <= 1
 Y_2,3 <= 1
 Y_2,4 <= 1
 Y_2,5 <= 1
 Y_2,6 <= 1
 Y_2,7 <= 1
 Y_2,8 <= 1
 Y_2,9 <= 1
 Y_2,10 <= 1
 Y_2,11 <= 1
 Y_2,12 <= 1
 Y_3,20 <= 1
 Y_3,21 <= 1
 Y_4,25 <= 1
 Y_4,26 <= 1
 X_0,1,0,0 <= 1
 BAUX_0,1,0,0 <= 1
 X_0,2,0,0 <= 1
 BAUX_0,2,0,0 <= 1
 X_0,3,0,0 <= 1
 BAUX_0,3,0,0 <= 1
 X_0,4,0,0 <= 1
 BAUX_0,4,0,0 <= 1
 X_2,3,2,0 <= 1
 BAUX_2,3,2,0 <= 1
 X_2,4,2,0 <= 1
 BAUX_2,4,2,0 <= 1
 X_2,0,2,0 <= 1
 BAUX_2,0,2,0 <= 1
 X_2,3,3,0 <= 1
 BAUX_2,3,3,0 <= 1
 X_2,4,3,0 <= 1
 BAUX_2,4,3,0 <= 1
 X_2,0,3,0 <= 1
 BAUX_2,0,3,0 <= 1
 X_2,3,4,0 <= 1
 BAUX_2,3,4,0 <= 1
 X_2,4,4,0 <= 1
 BAUX_2,4,4,0 <= 1
 X_2,0,4,0 <= 1
 BAUX_2,0,4,0 <= 1
 X_1,2,5,0 <= 1
 BAUX_1,2,5,0 <= 1
 X_1,3,5,0 <= 1
 BAUX_1,3,5,0 <= 1
 X_1,4,5,0 <= 1
 BAUX_1,4,5,0 <= 1
 X_1,0,5,0 <= 1
 BAUX_1,0,5,0 <= 1
 X_2,3,5,0 <= 1
 BAUX_2,3,5,0 <= 1
 X_2,4,5,0 <= 1
 BAUX_2,4,5,0 <= 1
 X_2,0,5,0 <= 1
 BAUX_2,0,5,0 <= 1
 X_2,3,11,0 <= 1
 BAUX_2,3,11,0 <= 1
 X_2,4,11,0 <= 1
 BAUX_2,4,11,0 <= 1
 X_2,0,11,0 <= 1
 BAUX_2,0,11,0 <= 1
 X_1,2,6,0 <= 1
 BAUX_1,2,6,0 <= 1
 X_1,3,6,0 <= 1
 BAUX_1,3,6,0 <= 1
 X_1,4,6,0 <= 1
 BAUX_1,4,6,0 <= 1
 X_1,0,6,0 <= 1
 BAUX_1,0,6,0 <= 1
 X_2,3,6,0 <= 1
 BAUX_2,3,6,0 <= 1
 X_2,4,6,0 <= 1
 BAUX_2,4,6,0 <= 1
 X_2,0,6,0 <= 1
 BAUX_2,0,6,0 <= 1
 X_2,3,12,0 <= 1
 BAUX_2,3,12,0 <= 1
 X_2,4,12,0 <= 1
 BAUX_2,4,12,0 <= 1
 X_2,0,12,0 <= 1
 BAUX_2,0,12,0 <= 1
 X_2,3,7,0 <= 1
 BAUX_2,3,7,0 <= 1
 X_2,4,7,0 <= 1
 BAUX_2,4,7,0 <= 1
 X_2,0,7,0 <= 1
 BAUX_2,0,7,0 <= 1
 X_2,3,8,0 <= 1
 BAUX_2,3,8,0 <= 1
 X_2,4,8,0 <= 1
 BAUX_2,4,8,0 <= 1
 X_2,0,8,0 <= 1
 BAUX_2,0,8,0 <= 1
 X_2,3,9,0 <= 1
 BAUX_2,3,9,0 <= 1
 X_2,4,9,0 <= 1
 BAUX_2,4,9,0 <= 1
 X_2,0,9,0 <= 1
 BAUX_2,0,9,0 <= 1
 X_3,4,20,0 <= 1
 BAUX_3,4,20,0 <= 1
 X_3,0,20,0 <= 1
 BAUX_3,0,20,0 <= 1
 X_2,3,10,0 <= 1
 BAUX_2,3,10,0 <= 1
 X_2,4,10,0 <= 1
 BAUX_2,4,10,0 <= 1
 X_2,0,10,0 <= 1
 BAUX_2,0,10,0 <= 1
 X_3,4,21,0 <= 1
 BAUX_3,4,21,0 <= 1
 X_3,0,21,0 <= 1
 BAUX_3,0,21,0 <= 1
 X_4,0,25,0 <= 1
 BAUX_4,0,25,0 <= 1
 X_4,0,26,0 <= 1
 BAUX_4,0,26,0 <= 1
 FAUX_0 <= 2
End
